results_rootrelaxation/bin012_050_033.srr.sol
solution status: optimal solution found
objective value:                                    0
_var61_                             0.016658065256034 	(obj:0)
_var152_                            0.447095590343483 	(obj:0)
_var204_                            0.258220081426688 	(obj:0)
_var223_                           0.0975571993806984 	(obj:0)
_var240_                            0.154128677103045 	(obj:0)
_var401_                            0.160164000229371 	(obj:0)
_var677_                           0.0135242846493482 	(obj:0)
_var678_                            0.137742989850335 	(obj:0)
_var681_                            0.318894432020185 	(obj:0)
_var682_                            0.271618212053443 	(obj:0)
_var683_                            0.248566431561443 	(obj:0)
_var684_                            0.196158036584667 	(obj:0)
_var691_                           0.0661133092493825 	(obj:0)
_var697_                            0.130503469235621 	(obj:0)
_var698_                            0.118091633694592 	(obj:0)
_var700_                            0.134333964103446 	(obj:0)
_var704_                            0.474726188428236 	(obj:0)
_var705_                            0.341768450025805 	(obj:0)
_var708_                            0.216990653133782 	(obj:0)
_var709_                            0.441432995011181 	(obj:0)
_var712_                            0.298050346923562 	(obj:0)
_var720_                           0.0603044899363484 	(obj:0)
_var728_                            0.273347095590343 	(obj:0)
_var729_                            0.179121509260852 	(obj:0)
_var730_                           0.0620763805264061 	(obj:0)
_var731_                           0.0683869487929372 	(obj:0)
_var732_                            0.107873157864557 	(obj:0)
_var733_                            0.269938069843455 	(obj:0)
_var741_                          0.00584895922931344 	(obj:0)
_var745_                           0.0771890590056759 	(obj:0)
_var746_                            0.196158036584667 	(obj:0)
_var747_                            0.275422902689376 	(obj:0)
_var748_                            0.127157520500029 	(obj:0)
_var750_                            0.257044555307069 	(obj:0)
_var752_                           0.0610614140719093 	(obj:0)
_var754_                            0.490902574688916 	(obj:0)
_var755_                            0.133648718389816 	(obj:0)
_var757_                           0.0110757497562933 	(obj:0)
_var758_                            0.147557199380699 	(obj:0)
_var760_                            0.342293136074316 	(obj:0)
_var763_                            0.207096163770858 	(obj:0)
_var766_                            0.234580537874878 	(obj:0)
_var767_                            0.366540512644074 	(obj:0)
_var769_                            0.141071735764666 	(obj:0)
_var772_                             0.27345031251792 	(obj:0)
_var773_                            0.318868627788291 	(obj:0)
_var775_                           0.0706749240208727 	(obj:0)
_var777_                           0.0822208842250131 	(obj:0)
_var784_                            0.315972819542406 	(obj:0)
_var785_                            0.250593497333563 	(obj:0)
_var787_                             0.12947990137049 	(obj:0)
_var788_                          0.00753483571305727 	(obj:0)
_var790_                            0.125428636963129 	(obj:0)
_var791_                           0.0189833132633735 	(obj:0)
_var792_                            0.126498079018292 	(obj:0)
_var793_                           0.0178880669763178 	(obj:0)
_var795_                          0.00316818624921162 	(obj:0)
_var796_                           0.0491713974425132 	(obj:0)
_var797_                           0.0809450083146973 	(obj:0)
_var800_                            0.258220081426688 	(obj:0)
_var802_                           0.0980704168817007 	(obj:0)
_var804_                           0.0494839153621192 	(obj:0)
_var806_                           0.0853116577785414 	(obj:0)
