results_rootrelaxation/bin012_050_033.srr.log
SCIP version 8.0.3.5 [precision: 8 byte] [memory: block] [mode: optimized] [LP solver: Soplex 6.0.1.3] [GitHash: 438792519e]
Copyright (c) 2002-2023 Zuse Institute Berlin (ZIB)

External libraries: 
  Readline 8.1         GNU library for command line editing (gnu.org/s/readline)
  Soplex 6.0.1.3       Linear Programming Solver developed at Zuse Institute Berlin (soplex.zib.de) [GitHash: 713be0fe]
  CppAD 20180000.0     Algorithmic Differentiation of C++ algorithms developed by B. Bell (github.com/coin-or/CppAD)
  ZLIB 1.2.11          General purpose compression library by J. Gailly and M. Adler (zlib.net)
  bliss 0.77           Computing Graph Automorphism Groups by T. Junttila and P. Kaski (www.tcs.hut.fi/Software/bliss/)

user parameter file <scip.set> not found - using default parameters

srr/relaxation = TRUE

read problem <instances/bin012_050_033.srr>
============

Original problem: 
original problem has 0 variables (0 bin, 0 int, 0 impl, 0 cont) and 77 constraints

presolving:
presolving (1 rounds: 1 fast, 1 medium, 1 exhaustive):
 0 deleted vars, 0 deleted constraints, 0 added constraints, 0 tightened bounds, 0 added holes, 0 changed sides, 0 changed coefficients
 0 implications, 0 cliques
presolved problem has 0 variables (0 bin, 0 int, 0 impl, 0 cont) and 77 constraints
     77 constraints of type <linear>
Presolving Time: 0.00

 time | node  | left  |LP iter|LP it/n|mem/heur|mdpt |vars |cons |rows |cuts |sepa|confs|strbr|  dualbound   | primalbound  |  gap   | compl. 
  0.0s|     1 |     0 |     1 |     - |   710k |   0 |   1 |  77 |  77 |   0 |  0 |   0 |   0 |      --      |      --      |    Inf | unknown
r 0.0s|     1 |     0 |  1036 |     - |simplero|   0 | 675 |  77 |  77 |   0 |  0 |   0 |   0 |      --      | 1.300011e+01 |    Inf | unknown
r 0.0s|     1 |     0 |  1060 |     - |simplero|   0 | 686 |  77 |  77 |   0 |  0 |   0 |   0 |      --      | 1.219764e+01 |    Inf | unknown
r 0.0s|     1 |     0 |  1121 |     - |simplero|   0 | 697 |  77 |  77 |   0 |  0 |   0 |   0 |      --      | 1.060415e+01 |    Inf | unknown
r 0.0s|     1 |     0 |  1173 |     - |simplero|   0 | 708 |  77 |  77 |   0 |  0 |   0 |   0 |      --      | 9.292865e+00 |    Inf | unknown
r 0.0s|     1 |     0 |  1213 |     - |simplero|   0 | 708 |  77 |  77 |   0 |  0 |   0 |   0 |      --      | 8.876857e+00 |    Inf | unknown
r 0.0s|     1 |     0 |  1216 |     - |simplero|   0 | 708 |  77 |  77 |   0 |  0 |   0 |   0 |      --      | 8.863197e+00 |    Inf | unknown
r 0.1s|     1 |     0 |  1275 |     - |simplero|   0 | 719 |  77 |  77 |   0 |  0 |   0 |   0 |      --      | 6.440809e+00 |    Inf | unknown
r 0.1s|     1 |     0 |  1286 |     - |simplero|   0 | 719 |  77 |  77 |   0 |  0 |   0 |   0 |      --      | 6.330274e+00 |    Inf | unknown
r 0.1s|     1 |     0 |  1288 |     - |simplero|   0 | 719 |  77 |  77 |   0 |  0 |   0 |   0 |      --      | 6.328106e+00 |    Inf | unknown
r 0.1s|     1 |     0 |  1315 |     - |simplero|   0 | 730 |  77 |  77 |   0 |  0 |   0 |   0 |      --      | 5.508908e+00 |    Inf | unknown
r 0.1s|     1 |     0 |  1340 |     - |simplero|   0 | 730 |  77 |  77 |   0 |  0 |   0 |   0 |      --      | 5.160213e+00 |    Inf | unknown
r 0.1s|     1 |     0 |  1354 |     - |simplero|   0 | 730 |  77 |  77 |   0 |  0 |   0 |   0 |      --      | 5.109076e+00 |    Inf | unknown
r 0.1s|     1 |     0 |  1402 |     - |simplero|   0 | 741 |  77 |  77 |   0 |  0 |   0 |   0 |      --      | 4.027754e+00 |    Inf | unknown
r 0.1s|     1 |     0 |  1418 |     - |simplero|   0 | 741 |  77 |  77 |   0 |  0 |   0 |   0 |      --      | 3.883676e+00 |    Inf | unknown
 time | node  | left  |LP iter|LP it/n|mem/heur|mdpt |vars |cons |rows |cuts |sepa|confs|strbr|  dualbound   | primalbound  |  gap   | compl. 
r 0.1s|     1 |     0 |  1425 |     - |simplero|   0 | 741 |  77 |  77 |   0 |  0 |   0 |   0 |      --      | 3.879634e+00 |    Inf | unknown
r 0.1s|     1 |     0 |  1451 |     - |simplero|   0 | 752 |  77 |  77 |   0 |  0 |   0 |   0 |      --      | 3.243590e+00 |    Inf | unknown
r 0.1s|     1 |     0 |  1469 |     - |simplero|   0 | 752 |  77 |  77 |   0 |  0 |   0 |   0 |      --      | 3.077691e+00 |    Inf | unknown
r 0.1s|     1 |     0 |  1505 |     - |simplero|   0 | 763 |  77 |  77 |   0 |  0 |   0 |   0 |      --      | 2.449823e+00 |    Inf | unknown
r 0.1s|     1 |     0 |  1517 |     - |simplero|   0 | 763 |  77 |  77 |   0 |  0 |   0 |   0 |      --      | 2.400407e+00 |    Inf | unknown
r 0.1s|     1 |     0 |  1521 |     - |simplero|   0 | 763 |  77 |  77 |   0 |  0 |   0 |   0 |      --      | 2.399862e+00 |    Inf | unknown
r 0.1s|     1 |     0 |  1564 |     - |simplero|   0 | 774 |  77 |  77 |   0 |  0 |   0 |   0 |      --      | 1.208119e+00 |    Inf | unknown
r 0.1s|     1 |     0 |  1567 |     - |simplero|   0 | 774 |  77 |  77 |   0 |  0 |   0 |   0 |      --      | 1.207185e+00 |    Inf | unknown
r 0.1s|     1 |     0 |  1596 |     - |simplero|   0 | 785 |  77 |  77 |   0 |  0 |   0 |   0 |      --      | 7.777751e-01 |    Inf | unknown
r 0.1s|     1 |     0 |  1603 |     - |simplero|   0 | 785 |  77 |  77 |   0 |  0 |   0 |   0 |      --      | 7.651650e-01 |    Inf | unknown
r 0.1s|     1 |     0 |  1627 |     - |simplero|   0 | 796 |  77 |  77 |   0 |  0 |   0 |   0 |      --      | 4.595561e-01 |    Inf | unknown
r 0.1s|     1 |     0 |  1644 |     - |simplero|   0 | 796 |  77 |  77 |   0 |  0 |   0 |   0 |      --      | 3.391489e-01 |    Inf | unknown
r 0.1s|     1 |     0 |  1669 |     - |simplero|   0 | 807 |  77 |  77 |   0 |  0 |   0 |   0 |      --      | 0.000000e+00 |    Inf | unknown
  0.1s|     1 |     0 |  1669 |     - |  3668k |   0 | 807 |  77 |  77 |   0 |  0 |   0 |   0 | 0.000000e+00 | 0.000000e+00 |   0.00%| unknown
  0.1s|     1 |     0 |  1669 |     - |  3668k |   0 | 807 |  77 |  77 |   0 |  0 |   0 |   0 | 0.000000e+00 | 0.000000e+00 |   0.00%| unknown

SCIP Status        : problem is solved [optimal solution found]
Solving Time (sec) : 0.07
Solving Nodes      : 1
Primal Bound       : +0.00000000000000e+00 (27 solutions)
Dual Bound         : +0.00000000000000e+00
Gap                : 0.00 %

written transformed problem to file <results_rootrelaxation/bin012_050_033.srr.lp>
written transformed problem to file <results_rootrelaxation/bin012_050_033.srr.cip>


SCIP version 8.0.3.5 [precision: 8 byte] [memory: block] [mode: optimized] [LP solver: Soplex 6.0.1.3] [GitHash: 438792519e]
Copyright (c) 2002-2023 Zuse Institute Berlin (ZIB)

External libraries: 
  Readline 8.1         GNU library for command line editing (gnu.org/s/readline)
  Soplex 6.0.1.3       Linear Programming Solver developed at Zuse Institute Berlin (soplex.zib.de) [GitHash: 713be0fe]
  CppAD 20180000.0     Algorithmic Differentiation of C++ algorithms developed by B. Bell (github.com/coin-or/CppAD)
  ZLIB 1.2.11          General purpose compression library by J. Gailly and M. Adler (zlib.net)
  bliss 0.77           Computing Graph Automorphism Groups by T. Junttila and P. Kaski (www.tcs.hut.fi/Software/bliss/)

user parameter file <scip.set> not found - using default parameters

srr/relaxation = TRUE

read problem <instances/bin012_050_033.srr>
============

Original problem: 
original problem has 0 variables (0 bin, 0 int, 0 impl, 0 cont) and 77 constraints

presolving:
presolving (1 rounds: 1 fast, 1 medium, 1 exhaustive):
 0 deleted vars, 0 deleted constraints, 0 added constraints, 0 tightened bounds, 0 added holes, 0 changed sides, 0 changed coefficients
 0 implications, 0 cliques
presolved problem has 0 variables (0 bin, 0 int, 0 impl, 0 cont) and 77 constraints
     77 constraints of type <linear>
Presolving Time: 0.00

 time | node  | left  |LP iter|LP it/n|mem/heur|mdpt |vars |cons |rows |cuts |sepa|confs|strbr|  dualbound   | primalbound  |  gap   | compl. 
  0.0s|     1 |     0 |     1 |     - |   710k |   0 |   1 |  77 |  77 |   0 |  0 |   0 |   0 |      --      |      --      |    Inf | unknown
r 0.0s|     1 |     0 |  1036 |     - |simplero|   0 | 675 |  77 |  77 |   0 |  0 |   0 |   0 |      --      | 1.300011e+01 |    Inf | unknown
r 0.1s|     1 |     0 |  1060 |     - |simplero|   0 | 686 |  77 |  77 |   0 |  0 |   0 |   0 |      --      | 1.219764e+01 |    Inf | unknown
r 0.1s|     1 |     0 |  1121 |     - |simplero|   0 | 697 |  77 |  77 |   0 |  0 |   0 |   0 |      --      | 1.060415e+01 |    Inf | unknown
r 0.1s|     1 |     0 |  1173 |     - |simplero|   0 | 708 |  77 |  77 |   0 |  0 |   0 |   0 |      --      | 9.292865e+00 |    Inf | unknown
r 0.1s|     1 |     0 |  1213 |     - |simplero|   0 | 708 |  77 |  77 |   0 |  0 |   0 |   0 |      --      | 8.876857e+00 |    Inf | unknown
r 0.1s|     1 |     0 |  1216 |     - |simplero|   0 | 708 |  77 |  77 |   0 |  0 |   0 |   0 |      --      | 8.863197e+00 |    Inf | unknown
r 0.1s|     1 |     0 |  1275 |     - |simplero|   0 | 719 |  77 |  77 |   0 |  0 |   0 |   0 |      --      | 6.440809e+00 |    Inf | unknown
r 0.1s|     1 |     0 |  1286 |     - |simplero|   0 | 719 |  77 |  77 |   0 |  0 |   0 |   0 |      --      | 6.330274e+00 |    Inf | unknown
r 0.1s|     1 |     0 |  1288 |     - |simplero|   0 | 719 |  77 |  77 |   0 |  0 |   0 |   0 |      --      | 6.328106e+00 |    Inf | unknown
r 0.1s|     1 |     0 |  1315 |     - |simplero|   0 | 730 |  77 |  77 |   0 |  0 |   0 |   0 |      --      | 5.508908e+00 |    Inf | unknown
r 0.1s|     1 |     0 |  1340 |     - |simplero|   0 | 730 |  77 |  77 |   0 |  0 |   0 |   0 |      --      | 5.160213e+00 |    Inf | unknown
r 0.1s|     1 |     0 |  1354 |     - |simplero|   0 | 730 |  77 |  77 |   0 |  0 |   0 |   0 |      --      | 5.109076e+00 |    Inf | unknown
r 0.1s|     1 |     0 |  1402 |     - |simplero|   0 | 741 |  77 |  77 |   0 |  0 |   0 |   0 |      --      | 4.027754e+00 |    Inf | unknown
r 0.1s|     1 |     0 |  1418 |     - |simplero|   0 | 741 |  77 |  77 |   0 |  0 |   0 |   0 |      --      | 3.883676e+00 |    Inf | unknown
 time | node  | left  |LP iter|LP it/n|mem/heur|mdpt |vars |cons |rows |cuts |sepa|confs|strbr|  dualbound   | primalbound  |  gap   | compl. 
r 0.1s|     1 |     0 |  1425 |     - |simplero|   0 | 741 |  77 |  77 |   0 |  0 |   0 |   0 |      --      | 3.879634e+00 |    Inf | unknown
r 0.1s|     1 |     0 |  1451 |     - |simplero|   0 | 752 |  77 |  77 |   0 |  0 |   0 |   0 |      --      | 3.243590e+00 |    Inf | unknown
r 0.1s|     1 |     0 |  1469 |     - |simplero|   0 | 752 |  77 |  77 |   0 |  0 |   0 |   0 |      --      | 3.077691e+00 |    Inf | unknown
r 0.1s|     1 |     0 |  1505 |     - |simplero|   0 | 763 |  77 |  77 |   0 |  0 |   0 |   0 |      --      | 2.449823e+00 |    Inf | unknown
r 0.1s|     1 |     0 |  1517 |     - |simplero|   0 | 763 |  77 |  77 |   0 |  0 |   0 |   0 |      --      | 2.400407e+00 |    Inf | unknown
r 0.1s|     1 |     0 |  1521 |     - |simplero|   0 | 763 |  77 |  77 |   0 |  0 |   0 |   0 |      --      | 2.399862e+00 |    Inf | unknown
r 0.1s|     1 |     0 |  1564 |     - |simplero|   0 | 774 |  77 |  77 |   0 |  0 |   0 |   0 |      --      | 1.208119e+00 |    Inf | unknown
r 0.1s|     1 |     0 |  1567 |     - |simplero|   0 | 774 |  77 |  77 |   0 |  0 |   0 |   0 |      --      | 1.207185e+00 |    Inf | unknown
r 0.1s|     1 |     0 |  1596 |     - |simplero|   0 | 785 |  77 |  77 |   0 |  0 |   0 |   0 |      --      | 7.777751e-01 |    Inf | unknown
r 0.1s|     1 |     0 |  1603 |     - |simplero|   0 | 785 |  77 |  77 |   0 |  0 |   0 |   0 |      --      | 7.651650e-01 |    Inf | unknown
r 0.1s|     1 |     0 |  1627 |     - |simplero|   0 | 796 |  77 |  77 |   0 |  0 |   0 |   0 |      --      | 4.595561e-01 |    Inf | unknown
r 0.1s|     1 |     0 |  1644 |     - |simplero|   0 | 796 |  77 |  77 |   0 |  0 |   0 |   0 |      --      | 3.391489e-01 |    Inf | unknown
r 0.1s|     1 |     0 |  1669 |     - |simplero|   0 | 807 |  77 |  77 |   0 |  0 |   0 |   0 |      --      | 0.000000e+00 |    Inf | unknown
  0.1s|     1 |     0 |  1669 |     - |  3668k |   0 | 807 |  77 |  77 |   0 |  0 |   0 |   0 | 0.000000e+00 | 0.000000e+00 |   0.00%| unknown
  0.1s|     1 |     0 |  1669 |     - |  3668k |   0 | 807 |  77 |  77 |   0 |  0 |   0 |   0 | 0.000000e+00 | 0.000000e+00 |   0.00%| unknown

SCIP Status        : problem is solved [optimal solution found]
Solving Time (sec) : 0.08
Solving Nodes      : 1
Primal Bound       : +0.00000000000000e+00 (27 solutions)
Dual Bound         : +0.00000000000000e+00
Gap                : 0.00 %

written transformed problem to file <results_rootrelaxation/bin012_050_033.srr.lp>
written transformed problem to file <results_rootrelaxation/bin012_050_033.srr.cip>

written solution information to file <results_rootrelaxation/bin012_050_033.srr.sol>



